\ENCODING=ISO-8859-1
\Problem name: 
 -- Set Cover Location Problem -- 

Minimize
 obj: x100001 + x100002 + x100003 + x100004 + x100005 + x100006 + x100007
      + x100008 + x100009 + x100010 + x100011 + x100012 + x100013 + x100014
      + x100015 + x100016 + x100017 + x100018 + x100019 + x100020
Subject To
 c1:  x100003 + x100004 + x100006 + x100007 + x100009 + x100013 >= 1
 c2:  x100001 + x100006 + x100007 + x100015 >= 1
 c3:  x100002 + x100005 + x100009 + x100016 + x100017 >= 1
 c4:  x100006 + x100008 + x100009 + x100010 + x100014 + x100017 + x100018
      + x100019 >= 1
 c5:  x100002 + x100003 + x100006 + x100010 + x100011 + x100014 + x100016
      + x100017 + x100019 >= 1
 c6:  x100001 + x100004 + x100005 + x100006 + x100009 + x100010 + x100011
      + x100012 + x100015 + x100018 + x100019 >= 1
 c7:  x100001 + x100010 + x100015 + x100016 + x100018 >= 1
 c8:  x100005 + x100012 + x100014 + x100019 >= 1
 c9:  x100006 + x100008 + x100009 + x100015 >= 1
 c10: x100001 + x100005 + x100006 + x100008 + x100011 + x100016 + x100019
      + x100020 >= 1
 c11: x100003 + x100008 + x100009 + x100014 + x100016 >= 1
 c12: x100001 + x100002 + x100010 + x100012 + x100015 + x100017 + x100018
      + x100019 >= 1
 c13: x100004 + x100010 + x100011 + x100012 + x100013 + x100019 >= 1
 c14: x100003 + x100005 + x100016 + x100020 >= 1
 c15: x100003 + x100004 + x100008 + x100009 + x100010 + x100013 + x100014
      + x100017 >= 1
 c16: x100004 + x100013 + x100019 >= 1
 c17: x100016 + x100017 + x100019 + x100020 >= 1
 c18: x100001 + x100004 + x100007 + x100008 + x100009 + x100012 + x100014
      + x100018 + x100019 + x100020 >= 1
 c19: x100005 + x100008 + x100009 + x100010 + x100013 + x100016 + x100019
      + x100020 >= 1
 c20: x100007 + x100008 + x100012 + x100013 + x100017 + x100018 >= 1
Bounds
 0 <= x100001 <= 1
 0 <= x100002 <= 1
 0 <= x100003 <= 1
 0 <= x100004 <= 1
 0 <= x100005 <= 1
 0 <= x100006 <= 1
 0 <= x100007 <= 1
 0 <= x100008 <= 1
 0 <= x100009 <= 1
 0 <= x100010 <= 1
 0 <= x100011 <= 1
 0 <= x100012 <= 1
 0 <= x100013 <= 1
 0 <= x100014 <= 1
 0 <= x100015 <= 1
 0 <= x100016 <= 1
 0 <= x100017 <= 1
 0 <= x100018 <= 1
 0 <= x100019 <= 1
 0 <= x100020 <= 1
Binaries
 x100001  x100002  x100003  x100004  x100005  x100006  x100007  x100008 
 x100009  x100010  x100011  x100012  x100013  x100014  x100015  x100016 
 x100017  x100018  x100019  x100020 
End
